5991
0 1 0 1 0 1 0 0 1 1 0 0 0 1 1 0 0 1 0 0 
1 17 1 1 1 1 1 1 1 3 3 3 3 3 3 5 5 5 5 5 5 5 5 5 9 5 5 9 5 5 5 8 8 8 8 8 9 8 9 9 9 9 13 13 8 8 8 9 13 13 13 13 13 13 13 14 14 13 14 13 17 14 14 14 14 17 17 17 17 17 17 17 17 17 17 17 17 17 1 17 
